p cnf 10 50
-5 3 7 0
2 5 -6 0
-3 -4 -10 0
5 -6 7 0
1 6 9 0
6 7 4 0
4 1 10 0
-8 5 -3 0
1 5 -4 0
5 -3 -8 0
1 -7 -10 0
-9 10 -6 0
-1 5 -3 0
-9 5 3 0
-5 -3 -7 0
-2 -5 7 0
-9 -3 -8 0
-4 -9 1 0
8 10 -7 0
2 10 5 0
-4 7 10 0
-6 7 -3 0
-9 -10 2 0
-3 -4 -5 0
1 8 -6 0
5 -10 8 0
-3 -4 -1 0
-4 -1 -7 0
3 -7 -10 0
-7 4 -3 0
9 -10 -7 0
-1 5 -2 0
10 -1 8 0
-3 -9 -6 0
-6 -9 3 0
-5 -6 9 0
1 3 -6 0
10 6 -2 0
4 -1 10 0
-9 -4 -5 0
-5 7 -6 0
-6 -5 -10 0
6 5 4 0
-7 2 3 0
-7 -2 -1 0
5 7 3 0
-1 -9 2 0
5 4 10 0
-2 -10 7 0
6 10 -4 0
